benchmark/results/graph__15-1000-0.10-03_14/graph__15-1000-0.10-03_14_Quinton_Benders_primal_sub.lp
\ This file has been generated by DOcplex
\ ENCODING=ISO-8859-1
\Problem name: Quinton Benders_primal_sub

Maximize
 obj: tau
Subject To
 c1: tau <= 0.000786163522
 c2: y_a0_proc_0 + y_a0_proc_1 - tau = 0
 c3: y_a0_proc_0 <= 0
 c4: y_a0_proc_1 <= 1
 c5: tau <= 0.001265822785
 c6: y_a1_proc_0 + y_a1_proc_2 - tau = 0
 c7: y_a1_proc_0 <= 0
 c8: y_a1_proc_2 <= 1
 c9: tau <= 0.001445086705
 c10: y_a2_proc_1 + y_a2_proc_2 - tau = 0
 c11: y_a2_proc_1 <= 0
 c12: y_a2_proc_2 <= 1
 c13: tau <= 0.001811594203
 c14: y_a3_proc_0 + y_a3_proc_1 + y_a3_proc_2 - tau = 0
 c15: y_a3_proc_0 <= 0
 c16: y_a3_proc_1 <= 0
 c17: y_a3_proc_2 <= 1
 c18: tau <= 0.001926782274
 c19: y_a4_proc_1 + y_a4_proc_2 - tau = 0
 c20: y_a4_proc_1 <= 1
 c21: y_a4_proc_2 <= 0
 c22: tau <= 0.001001001001
 c23: y_a5_proc_1 + y_a5_proc_2 - tau = 0
 c24: y_a5_proc_1 <= 0
 c25: y_a5_proc_2 <= 1
 c26: tau <= 0.001213592233
 c27: y_a6_proc_1 + y_a6_proc_2 - tau = 0
 c28: y_a6_proc_1 <= 0
 c29: y_a6_proc_2 <= 1
 c30: tau <= 0.001052631579
 c31: y_a7_proc_1 + y_a7_proc_2 - tau = 0
 c32: y_a7_proc_1 <= 0
 c33: y_a7_proc_2 <= 1
 c34: tau <= 0.001000000000
 c35: y_a8_proc_0 + y_a8_proc_1 + y_a8_proc_2 - tau = 0
 c36: y_a8_proc_0 <= 1
 c37: y_a8_proc_1 <= 0
 c38: y_a8_proc_2 <= 0
 c39: tau <= 0.001038421599
 c40: y_a9_proc_0 + y_a9_proc_1 + y_a9_proc_2 - tau = 0
 c41: y_a9_proc_0 <= 0
 c42: y_a9_proc_1 <= 1
 c43: y_a9_proc_2 <= 0
 c44: tau <= 0.001034126163
 c45: y_a10_proc_0 + y_a10_proc_1 + y_a10_proc_2 - tau = 0
 c46: y_a10_proc_0 <= 0
 c47: y_a10_proc_1 <= 1
 c48: y_a10_proc_2 <= 0
 c49: tau <= 0.004098360656
 c50: y_a11_proc_0 + y_a11_proc_1 + y_a11_proc_2 - tau = 0
 c51: y_a11_proc_0 <= 0
 c52: y_a11_proc_1 <= 1
 c53: y_a11_proc_2 <= 0
 c54: tau <= 0.001055966209
 c55: y_a12_proc_0 - tau = 0
 c56: y_a12_proc_0 <= 1
 c57: tau <= 0.001230012300
 c58: y_a13_proc_0 + y_a13_proc_1 - tau = 0
 c59: y_a13_proc_0 <= 1
 c60: y_a13_proc_1 <= 0
 c61: tau <= 0.001620745543
 c62: y_a14_proc_0 + y_a14_proc_1 + y_a14_proc_2 - tau = 0
 c63: y_a14_proc_0 <= 1
 c64: y_a14_proc_1 <= 0
 c65: y_a14_proc_2 <= 0
 c66: u_a0 - u_a1 - 799 y_a1_proc_0 - 790 y_a1_proc_2 >= 0
 c67: u_a1 - u_a2 - 852 y_a2_proc_1 - 692 y_a2_proc_2 >= -1
 c68: u_a2 - u_a3 - 1142 y_a3_proc_0 - 1076 y_a3_proc_1 - 552 y_a3_proc_2 >= 0
 c69: u_a1 - u_a4 - 519 y_a4_proc_1 - 913 y_a4_proc_2 >= -1
 c70: u_a3 - u_a5 - 1138 y_a5_proc_1 - 999 y_a5_proc_2 >= 0
 c71: u_a6 - u_a5 - 1138 y_a5_proc_1 - 999 y_a5_proc_2 >= 0
 c72: u_a2 - u_a7 - 1108 y_a7_proc_1 - 950 y_a7_proc_2 >= 0
 c73: u_a8 - u_a2 - 852 y_a2_proc_1 - 692 y_a2_proc_2 >= -1
 c74: u_a9 - u_a3 - 1142 y_a3_proc_0 - 1076 y_a3_proc_1 - 552 y_a3_proc_2 >= 0
 c75: u_a10 - u_a4 - 519 y_a4_proc_1 - 913 y_a4_proc_2 >= -1
 c76: u_a4 - u_a11 - 1148 y_a11_proc_0 - 244 y_a11_proc_1 - 1064 y_a11_proc_2
       >= 0
 c77: u_a12 - u_a8 - 1000 y_a8_proc_0 - 446 y_a8_proc_1 - 1213 y_a8_proc_2 >= 0
 c78: u_a2 - u_a13 - 813 y_a13_proc_0 - 1153 y_a13_proc_1 >= 0
 c79: u_a14 - u_a12 - 947 y_a12_proc_0 >= 0
 c80: u_a6 - u_a10 - 1054 y_a10_proc_0 - 967 y_a10_proc_1 - 1108 y_a10_proc_2
       >= 0
 c81: u_a5 - u_a14 - 617 y_a14_proc_0 - 1243 y_a14_proc_1 - 1151 y_a14_proc_2
       >= 0
 c82: - 1148 y_a11_proc_0 - 244 y_a11_proc_1 - 1064 y_a11_proc_2 >= -1
 c83: u_a3 - u_a6 - 870 y_a6_proc_1 - 824 y_a6_proc_2 >= 0
 c84: u_a13 - u_a3 - 1142 y_a3_proc_0 - 1076 y_a3_proc_1 - 552 y_a3_proc_2 >= 0
 c85: u_a7 - u_a5 - 1138 y_a5_proc_1 - 999 y_a5_proc_2 >= 0
 c86: u_a11 - u_a10 - 1054 y_a10_proc_0 - 967 y_a10_proc_1 - 1108 y_a10_proc_2
       >= 0
 c87: - 617 y_a14_proc_0 - 1243 y_a14_proc_1 - 1151 y_a14_proc_2 >= -1
 c88: u_a10 - u_a9 - 953 y_a9_proc_0 - 963 y_a9_proc_1 - 820 y_a9_proc_2 >= -1
 c89: u_a11 - u_a0 - 906 y_a0_proc_0 - 1272 y_a0_proc_1 >= 0
 c90: u_a3 - u_a4 - 519 y_a4_proc_1 - 913 y_a4_proc_2 >= 0
 c91: u_a14 - u_a0 - 906 y_a0_proc_0 - 1272 y_a0_proc_1 >= 0
 c92: u_a1 - u_a0 - 906 y_a0_proc_0 >= -5089
 c93: u_a0 - u_a1 - 799 y_a1_proc_0 >= 0
 c94: u_a2 - u_a0 - 1272 y_a0_proc_1 >= -2544
 c95: u_a0 - u_a2 - 852 y_a2_proc_1 >= -1
 c96: u_a3 - u_a0 - 906 y_a0_proc_0 >= -3816
 c97: u_a3 - u_a0 - 1272 y_a0_proc_1 >= -2544
 c98: u_a0 - u_a3 - 1142 y_a3_proc_0 >= -1273
 c99: u_a0 - u_a3 - 1076 y_a3_proc_1 >= -1
 c100: u_a4 - u_a0 - 1272 y_a0_proc_1 >= 0
 c101: u_a0 - u_a4 - 519 y_a4_proc_1 >= -1
 c102: u_a5 - u_a0 - 1272 y_a0_proc_1 >= -2544
 c103: u_a0 - u_a5 - 1138 y_a5_proc_1 >= -1
 c104: u_a6 - u_a0 - 1272 y_a0_proc_1 >= -2544
 c105: u_a0 - u_a6 - 870 y_a6_proc_1 >= -1
 c106: u_a7 - u_a0 - 1272 y_a0_proc_1 >= -2544
 c107: u_a0 - u_a7 - 1108 y_a7_proc_1 >= -1
 c108: u_a8 - u_a0 - 906 y_a0_proc_0 >= -2
 c109: u_a8 - u_a0 - 1272 y_a0_proc_1 >= -2
 c110: u_a0 - u_a8 - 1000 y_a8_proc_0 >= -2543
 c111: u_a0 - u_a8 - 446 y_a8_proc_1 >= -2543
 c112: u_a9 - u_a0 - 906 y_a0_proc_0 >= -2544
 c113: u_a9 - u_a0 - 1272 y_a0_proc_1 >= 0
 c114: u_a0 - u_a9 - 953 y_a9_proc_0 >= -2545
 c115: u_a0 - u_a9 - 963 y_a9_proc_1 >= -1
 c116: u_a10 - u_a0 - 906 y_a0_proc_0 >= -2544
 c117: u_a10 - u_a0 - 1272 y_a0_proc_1 >= 0
 c118: u_a0 - u_a10 - 1054 y_a10_proc_0 >= -2545
 c119: u_a0 - u_a10 - 967 y_a10_proc_1 >= -1
 c120: u_a11 - u_a0 - 906 y_a0_proc_0 >= -2544
 c121: u_a11 - u_a0 - 1272 y_a0_proc_1 >= 0
 c122: u_a0 - u_a11 - 1148 y_a11_proc_0 >= -2545
 c123: u_a0 - u_a11 - 244 y_a11_proc_1 >= -1
 c124: u_a12 - u_a0 - 906 y_a0_proc_0 >= -2320
 c125: u_a0 - u_a12 - 947 y_a12_proc_0 >= -225
 c126: u_a13 - u_a0 - 906 y_a0_proc_0 >= -2544
 c127: u_a13 - u_a0 - 1272 y_a0_proc_1 >= -2544
 c128: u_a0 - u_a13 - 813 y_a13_proc_0 >= -1
 c129: u_a0 - u_a13 - 1153 y_a13_proc_1 >= -1
 c130: u_a14 - u_a0 - 906 y_a0_proc_0 >= -2544
 c131: u_a14 - u_a0 - 1272 y_a0_proc_1 >= -2544
 c132: u_a0 - u_a14 - 617 y_a14_proc_0 >= -1
 c133: u_a0 - u_a14 - 1243 y_a14_proc_1 >= -1
 c134: u_a2 - u_a1 - 790 y_a1_proc_2 >= 0
 c135: u_a1 - u_a2 - 692 y_a2_proc_2 >= -1
 c136: u_a3 - u_a1 - 790 y_a1_proc_2 >= 0
 c137: u_a3 - u_a1 - 799 y_a1_proc_0 >= -2544
 c138: u_a1 - u_a3 - 552 y_a3_proc_2 >= -1
 c139: u_a1 - u_a3 - 1142 y_a3_proc_0 >= -2545
 c140: u_a4 - u_a1 - 790 y_a1_proc_2 >= -2544
 c141: u_a1 - u_a4 - 913 y_a4_proc_2 >= -1
 c142: u_a5 - u_a1 - 790 y_a1_proc_2 >= 0
 c143: u_a1 - u_a5 - 999 y_a5_proc_2 >= -1
 c144: u_a6 - u_a1 - 790 y_a1_proc_2 >= 0
 c145: u_a1 - u_a6 - 824 y_a6_proc_2 >= -1
 c146: u_a7 - u_a1 - 790 y_a1_proc_2 >= 0
 c147: u_a1 - u_a7 - 950 y_a7_proc_2 >= -1
 c148: u_a8 - u_a1 - 790 y_a1_proc_2 >= -2544
 c149: u_a8 - u_a1 - 799 y_a1_proc_0 >= -2544
 c150: u_a1 - u_a8 - 1213 y_a8_proc_2 >= -1
 c151: u_a1 - u_a8 - 1000 y_a8_proc_0 >= -1
 c152: u_a9 - u_a1 - 790 y_a1_proc_2 >= -76
 c153: u_a9 - u_a1 - 799 y_a1_proc_0 >= -1348
 c154: u_a1 - u_a9 - 820 y_a9_proc_2 >= -2469
 c155: u_a1 - u_a9 - 953 y_a9_proc_0 >= -3741
 c156: u_a10 - u_a1 - 790 y_a1_proc_2 >= -2544
 c157: u_a10 - u_a1 - 799 y_a1_proc_0 >= -3816
 c158: u_a1 - u_a10 - 1108 y_a10_proc_2 >= -1
 c159: u_a1 - u_a10 - 1054 y_a10_proc_0 >= -1273
 c160: u_a11 - u_a1 - 790 y_a1_proc_2 >= -2544
 c161: u_a11 - u_a1 - 799 y_a1_proc_0 >= -3816
 c162: u_a1 - u_a11 - 1064 y_a11_proc_2 >= -1
 c163: u_a1 - u_a11 - 1148 y_a11_proc_0 >= -1273
 c164: u_a12 - u_a1 - 799 y_a1_proc_0 >= -2254
 c165: u_a1 - u_a12 - 947 y_a12_proc_0 >= -291
 c166: u_a13 - u_a1 - 799 y_a1_proc_0 >= -2544
 c167: u_a1 - u_a13 - 813 y_a13_proc_0 >= -1
 c168: u_a14 - u_a1 - 790 y_a1_proc_2 >= -2544
 c169: u_a14 - u_a1 - 799 y_a1_proc_0 >= -2544
 c170: u_a1 - u_a14 - 1151 y_a14_proc_2 >= -1
 c171: u_a1 - u_a14 - 617 y_a14_proc_0 >= -1
 c172: u_a3 - u_a2 - 692 y_a2_proc_2 >= -1
 c173: u_a3 - u_a2 - 852 y_a2_proc_1 >= -2545
 c174: u_a2 - u_a3 - 552 y_a3_proc_2 >= 0
 c175: u_a2 - u_a3 - 1076 y_a3_proc_1 >= -2544
 c176: u_a4 - u_a2 - 692 y_a2_proc_2 >= -2545
 c177: u_a4 - u_a2 - 852 y_a2_proc_1 >= -2545
 c178: u_a2 - u_a4 - 913 y_a4_proc_2 >= 0
 c179: u_a2 - u_a4 - 519 y_a4_proc_1 >= 0
 c180: u_a5 - u_a2 - 692 y_a2_proc_2 >= -1
 c181: u_a5 - u_a2 - 852 y_a2_proc_1 >= -2545
 c182: u_a2 - u_a5 - 999 y_a5_proc_2 >= 0
 c183: u_a2 - u_a5 - 1138 y_a5_proc_1 >= -2544
 c184: u_a6 - u_a2 - 692 y_a2_proc_2 >= -1
 c185: u_a6 - u_a2 - 852 y_a2_proc_1 >= -2545
 c186: u_a2 - u_a6 - 824 y_a6_proc_2 >= 0
 c187: u_a2 - u_a6 - 870 y_a6_proc_1 >= -2544
 c188: u_a7 - u_a2 - 692 y_a2_proc_2 >= -1
 c189: u_a7 - u_a2 - 852 y_a2_proc_1 >= -2545
 c190: u_a2 - u_a7 - 950 y_a7_proc_2 >= 0
 c191: u_a2 - u_a7 - 1108 y_a7_proc_1 >= -2544
 c192: u_a8 - u_a2 - 692 y_a2_proc_2 >= -2545
 c193: u_a8 - u_a2 - 852 y_a2_proc_1 >= -3817
 c194: u_a2 - u_a8 - 1213 y_a8_proc_2 >= 0
 c195: u_a2 - u_a8 - 446 y_a8_proc_1 >= -1272
 c196: u_a9 - u_a2 - 692 y_a2_proc_2 >= -2304
 c197: u_a9 - u_a2 - 852 y_a2_proc_1 >= -2304
 c198: u_a2 - u_a9 - 820 y_a9_proc_2 >= -241
 c199: u_a2 - u_a9 - 963 y_a9_proc_1 >= -241
 c200: u_a10 - u_a2 - 692 y_a2_proc_2 >= -1
 c201: u_a10 - u_a2 - 852 y_a2_proc_1 >= -1
 c202: u_a2 - u_a10 - 1108 y_a10_proc_2 >= -2544
 c203: u_a2 - u_a10 - 967 y_a10_proc_1 >= -2544
 c204: u_a11 - u_a2 - 692 y_a2_proc_2 >= -2545
 c205: u_a11 - u_a2 - 852 y_a2_proc_1 >= -2545
 c206: u_a2 - u_a11 - 1064 y_a11_proc_2 >= 0
 c207: u_a2 - u_a11 - 244 y_a11_proc_1 >= 0
 c208: u_a13 - u_a2 - 852 y_a2_proc_1 >= -5089
 c209: u_a2 - u_a13 - 1153 y_a13_proc_1 >= 0
 c210: u_a14 - u_a2 - 692 y_a2_proc_2 >= -2545
 c211: u_a14 - u_a2 - 852 y_a2_proc_1 >= -3817
 c212: u_a2 - u_a14 - 1151 y_a14_proc_2 >= 0
 c213: u_a2 - u_a14 - 1243 y_a14_proc_1 >= -1272
 c214: u_a4 - u_a3 - 552 y_a3_proc_2 >= -2545
 c215: u_a4 - u_a3 - 1076 y_a3_proc_1 >= -2545
 c216: u_a3 - u_a4 - 913 y_a4_proc_2 >= 0
 c217: u_a3 - u_a4 - 519 y_a4_proc_1 >= 0
 c218: u_a5 - u_a3 - 552 y_a3_proc_2 >= -1
 c219: u_a5 - u_a3 - 1076 y_a3_proc_1 >= -2545
 c220: u_a3 - u_a5 - 999 y_a5_proc_2 >= 0
 c221: u_a3 - u_a5 - 1138 y_a5_proc_1 >= -2544
 c222: u_a6 - u_a3 - 552 y_a3_proc_2 >= -1
 c223: u_a6 - u_a3 - 1076 y_a3_proc_1 >= -2545
 c224: u_a3 - u_a6 - 824 y_a6_proc_2 >= 0
 c225: u_a3 - u_a6 - 870 y_a6_proc_1 >= -2544
 c226: u_a7 - u_a3 - 552 y_a3_proc_2 >= 0
 c227: u_a7 - u_a3 - 1076 y_a3_proc_1 >= -2544
 c228: u_a3 - u_a7 - 950 y_a7_proc_2 >= -1
 c229: u_a3 - u_a7 - 1108 y_a7_proc_1 >= -2545
 c230: u_a8 - u_a3 - 552 y_a3_proc_2 >= -2545
 c231: u_a8 - u_a3 - 1142 y_a3_proc_0 >= -2545
 c232: u_a8 - u_a3 - 1076 y_a3_proc_1 >= -3817
 c233: u_a3 - u_a8 - 1213 y_a8_proc_2 >= 0
 c234: u_a3 - u_a8 - 1000 y_a8_proc_0 >= 0
 c235: u_a3 - u_a8 - 446 y_a8_proc_1 >= -1272
 c236: u_a9 - u_a3 - 552 y_a3_proc_2 >= -2544
 c237: u_a9 - u_a3 - 1142 y_a3_proc_0 >= -3816
 c238: u_a9 - u_a3 - 1076 y_a3_proc_1 >= -2544
 c239: u_a3 - u_a9 - 820 y_a9_proc_2 >= -1
 c240: u_a3 - u_a9 - 953 y_a9_proc_0 >= -1273
 c241: u_a3 - u_a9 - 963 y_a9_proc_1 >= -1
 c242: u_a10 - u_a3 - 552 y_a3_proc_2 >= -2545
 c243: u_a10 - u_a3 - 1142 y_a3_proc_0 >= -3817
 c244: u_a10 - u_a3 - 1076 y_a3_proc_1 >= -2545
 c245: u_a3 - u_a10 - 1108 y_a10_proc_2 >= 0
 c246: u_a3 - u_a10 - 1054 y_a10_proc_0 >= -1272
 c247: u_a3 - u_a10 - 967 y_a10_proc_1 >= 0
 c248: u_a11 - u_a3 - 552 y_a3_proc_2 >= -2545
 c249: u_a11 - u_a3 - 1142 y_a3_proc_0 >= -3817
 c250: u_a11 - u_a3 - 1076 y_a3_proc_1 >= -2545
 c251: u_a3 - u_a11 - 1064 y_a11_proc_2 >= 0
 c252: u_a3 - u_a11 - 1148 y_a11_proc_0 >= -1272
 c253: u_a3 - u_a11 - 244 y_a11_proc_1 >= 0
 c254: u_a12 - u_a3 - 1142 y_a3_proc_0 >= -2545
 c255: u_a3 - u_a12 - 947 y_a12_proc_0 >= 0
 c256: u_a13 - u_a3 - 1142 y_a3_proc_0 >= -2544
 c257: u_a13 - u_a3 - 1076 y_a3_proc_1 >= -3816
 c258: u_a3 - u_a13 - 813 y_a13_proc_0 >= -1
 c259: u_a3 - u_a13 - 1153 y_a13_proc_1 >= -1273
 c260: u_a14 - u_a3 - 552 y_a3_proc_2 >= -2545
 c261: u_a14 - u_a3 - 1142 y_a3_proc_0 >= -2545
 c262: u_a14 - u_a3 - 1076 y_a3_proc_1 >= -3817
 c263: u_a3 - u_a14 - 1151 y_a14_proc_2 >= 0
 c264: u_a3 - u_a14 - 617 y_a14_proc_0 >= 0
 c265: u_a3 - u_a14 - 1243 y_a14_proc_1 >= -1272
 c266: u_a5 - u_a4 - 913 y_a4_proc_2 >= -236
 c267: u_a5 - u_a4 - 519 y_a4_proc_1 >= -236
 c268: u_a4 - u_a5 - 999 y_a5_proc_2 >= -2309
 c269: u_a4 - u_a5 - 1138 y_a5_proc_1 >= -2309
 c270: u_a6 - u_a4 - 913 y_a4_proc_2 >= -2544
 c271: u_a6 - u_a4 - 519 y_a4_proc_1 >= -2544
 c272: u_a4 - u_a6 - 824 y_a6_proc_2 >= -1
 c273: u_a4 - u_a6 - 870 y_a6_proc_1 >= -1
 c274: u_a7 - u_a4 - 913 y_a4_proc_2 >= -2324
 c275: u_a7 - u_a4 - 519 y_a4_proc_1 >= -2324
 c276: u_a4 - u_a7 - 950 y_a7_proc_2 >= -221
 c277: u_a4 - u_a7 - 1108 y_a7_proc_1 >= -221
 c278: u_a8 - u_a4 - 913 y_a4_proc_2 >= -1546
 c279: u_a8 - u_a4 - 519 y_a4_proc_1 >= -274
 c280: u_a4 - u_a8 - 1213 y_a8_proc_2 >= -3543
 c281: u_a4 - u_a8 - 446 y_a8_proc_1 >= -2271
 c282: u_a9 - u_a4 - 913 y_a4_proc_2 >= -2544
 c283: u_a9 - u_a4 - 519 y_a4_proc_1 >= 0
 c284: u_a4 - u_a9 - 820 y_a9_proc_2 >= -2545
 c285: u_a4 - u_a9 - 963 y_a9_proc_1 >= -1
 c286: u_a10 - u_a4 - 913 y_a4_proc_2 >= -2545
 c287: u_a10 - u_a4 - 519 y_a4_proc_1 >= -1
 c288: u_a4 - u_a10 - 1108 y_a10_proc_2 >= -2544
 c289: u_a4 - u_a10 - 967 y_a10_proc_1 >= 0
 c290: u_a11 - u_a4 - 913 y_a4_proc_2 >= -2545
 c291: u_a11 - u_a4 - 519 y_a4_proc_1 >= -1
 c292: u_a4 - u_a11 - 1064 y_a11_proc_2 >= -2544
 c293: u_a4 - u_a11 - 244 y_a11_proc_1 >= 0
 c294: u_a13 - u_a4 - 519 y_a4_proc_1 >= -2544
 c295: u_a4 - u_a13 - 1153 y_a13_proc_1 >= -1
 c296: u_a14 - u_a4 - 913 y_a4_proc_2 >= -1273
 c297: u_a14 - u_a4 - 519 y_a4_proc_1 >= -1
 c298: u_a4 - u_a14 - 1151 y_a14_proc_2 >= -3816
 c299: u_a4 - u_a14 - 1243 y_a14_proc_1 >= -2544
 c300: u_a6 - u_a5 - 999 y_a5_proc_2 >= 0
 c301: u_a6 - u_a5 - 1138 y_a5_proc_1 >= -2544
 c302: u_a5 - u_a6 - 824 y_a6_proc_2 >= -1
 c303: u_a5 - u_a6 - 870 y_a6_proc_1 >= -2545
 c304: u_a7 - u_a5 - 999 y_a5_proc_2 >= 0
 c305: u_a7 - u_a5 - 1138 y_a5_proc_1 >= -2544
 c306: u_a5 - u_a7 - 950 y_a7_proc_2 >= -1
 c307: u_a5 - u_a7 - 1108 y_a7_proc_1 >= -2545
 c308: u_a8 - u_a5 - 999 y_a5_proc_2 >= -2545
 c309: u_a8 - u_a5 - 1138 y_a5_proc_1 >= -3817
 c310: u_a5 - u_a8 - 1213 y_a8_proc_2 >= 0
 c311: u_a5 - u_a8 - 446 y_a8_proc_1 >= -1272
 c312: u_a9 - u_a5 - 999 y_a5_proc_2 >= -68
 c313: u_a9 - u_a5 - 1138 y_a5_proc_1 >= -68
 c314: u_a5 - u_a9 - 820 y_a9_proc_2 >= -2477
 c315: u_a5 - u_a9 - 963 y_a9_proc_1 >= -2477
 c316: u_a10 - u_a5 - 999 y_a5_proc_2 >= -1
 c317: u_a10 - u_a5 - 1138 y_a5_proc_1 >= -1
 c318: u_a5 - u_a10 - 1108 y_a10_proc_2 >= -2544
 c319: u_a5 - u_a10 - 967 y_a10_proc_1 >= -2544
 c320: u_a11 - u_a5 - 999 y_a5_proc_2 >= -2544
 c321: u_a11 - u_a5 - 1138 y_a5_proc_1 >= -2544
 c322: u_a5 - u_a11 - 1064 y_a11_proc_2 >= -1
 c323: u_a5 - u_a11 - 244 y_a11_proc_1 >= -1
 c324: u_a13 - u_a5 - 1138 y_a5_proc_1 >= -5088
 c325: u_a5 - u_a13 - 1153 y_a13_proc_1 >= -1
 c326: u_a14 - u_a5 - 999 y_a5_proc_2 >= -2545
 c327: u_a14 - u_a5 - 1138 y_a5_proc_1 >= -3817
 c328: u_a5 - u_a14 - 1151 y_a14_proc_2 >= 0
 c329: u_a5 - u_a14 - 1243 y_a14_proc_1 >= -1272
 c330: u_a7 - u_a6 - 824 y_a6_proc_2 >= 0
 c331: u_a7 - u_a6 - 870 y_a6_proc_1 >= -2544
 c332: u_a6 - u_a7 - 950 y_a7_proc_2 >= -1
 c333: u_a6 - u_a7 - 1108 y_a7_proc_1 >= -2545
 c334: u_a8 - u_a6 - 824 y_a6_proc_2 >= -2545
 c335: u_a8 - u_a6 - 870 y_a6_proc_1 >= -3817
 c336: u_a6 - u_a8 - 1213 y_a8_proc_2 >= 0
 c337: u_a6 - u_a8 - 446 y_a8_proc_1 >= -1272
 c338: u_a9 - u_a6 - 824 y_a6_proc_2 >= -2544
 c339: u_a9 - u_a6 - 870 y_a6_proc_1 >= -2544
 c340: u_a6 - u_a9 - 820 y_a9_proc_2 >= -1
 c341: u_a6 - u_a9 - 963 y_a9_proc_1 >= -1
 c342: u_a10 - u_a6 - 824 y_a6_proc_2 >= -2545
 c343: u_a10 - u_a6 - 870 y_a6_proc_1 >= -2545
 c344: u_a6 - u_a10 - 1108 y_a10_proc_2 >= 0
 c345: u_a6 - u_a10 - 967 y_a10_proc_1 >= 0
 c346: u_a11 - u_a6 - 824 y_a6_proc_2 >= -189
 c347: u_a11 - u_a6 - 870 y_a6_proc_1 >= -189
 c348: u_a6 - u_a11 - 1064 y_a11_proc_2 >= -2356
 c349: u_a6 - u_a11 - 244 y_a11_proc_1 >= -2356
 c350: u_a13 - u_a6 - 870 y_a6_proc_1 >= -5088
 c351: u_a6 - u_a13 - 1153 y_a13_proc_1 >= -1
 c352: u_a14 - u_a6 - 824 y_a6_proc_2 >= -2545
 c353: u_a14 - u_a6 - 870 y_a6_proc_1 >= -3817
 c354: u_a6 - u_a14 - 1151 y_a14_proc_2 >= 0
 c355: u_a6 - u_a14 - 1243 y_a14_proc_1 >= -1272
 c356: u_a8 - u_a7 - 950 y_a7_proc_2 >= -2545
 c357: u_a8 - u_a7 - 1108 y_a7_proc_1 >= -3817
 c358: u_a7 - u_a8 - 1213 y_a8_proc_2 >= 0
 c359: u_a7 - u_a8 - 446 y_a8_proc_1 >= -1272
 c360: u_a9 - u_a7 - 950 y_a7_proc_2 >= -2334
 c361: u_a9 - u_a7 - 1108 y_a7_proc_1 >= -2334
 c362: u_a7 - u_a9 - 820 y_a9_proc_2 >= -211
 c363: u_a7 - u_a9 - 963 y_a9_proc_1 >= -211
 c364: u_a10 - u_a7 - 950 y_a7_proc_2 >= -2354
 c365: u_a10 - u_a7 - 1108 y_a7_proc_1 >= -2354
 c366: u_a7 - u_a10 - 1108 y_a10_proc_2 >= -191
 c367: u_a7 - u_a10 - 967 y_a10_proc_1 >= -191
 c368: u_a11 - u_a7 - 950 y_a7_proc_2 >= -2545
 c369: u_a11 - u_a7 - 1108 y_a7_proc_1 >= -2545
 c370: u_a7 - u_a11 - 1064 y_a11_proc_2 >= 0
 c371: u_a7 - u_a11 - 244 y_a11_proc_1 >= 0
 c372: u_a13 - u_a7 - 1108 y_a7_proc_1 >= -5089
 c373: u_a7 - u_a13 - 1153 y_a13_proc_1 >= 0
 c374: u_a14 - u_a7 - 950 y_a7_proc_2 >= -2545
 c375: u_a14 - u_a7 - 1108 y_a7_proc_1 >= -3817
 c376: u_a7 - u_a14 - 1151 y_a14_proc_2 >= 0
 c377: u_a7 - u_a14 - 1243 y_a14_proc_1 >= -1272
 c378: u_a9 - u_a8 - 1213 y_a8_proc_2 >= -1535
 c379: u_a9 - u_a8 - 1000 y_a8_proc_0 >= -263
 c380: u_a9 - u_a8 - 446 y_a8_proc_1 >= -263
 c381: u_a8 - u_a9 - 820 y_a9_proc_2 >= -3554
 c382: u_a8 - u_a9 - 953 y_a9_proc_0 >= -2282
 c383: u_a8 - u_a9 - 963 y_a9_proc_1 >= -2282
 c384: u_a10 - u_a8 - 1213 y_a8_proc_2 >= -1272
 c385: u_a10 - u_a8 - 1000 y_a8_proc_0 >= 0
 c386: u_a10 - u_a8 - 446 y_a8_proc_1 >= 0
 c387: u_a8 - u_a10 - 1108 y_a10_proc_2 >= -3817
 c388: u_a8 - u_a10 - 1054 y_a10_proc_0 >= -2545
 c389: u_a8 - u_a10 - 967 y_a10_proc_1 >= -2545
 c390: u_a11 - u_a8 - 1213 y_a8_proc_2 >= -3520
 c391: u_a11 - u_a8 - 1000 y_a8_proc_0 >= -2248
 c392: u_a11 - u_a8 - 446 y_a8_proc_1 >= -2248
 c393: u_a8 - u_a11 - 1064 y_a11_proc_2 >= -1569
 c394: u_a8 - u_a11 - 1148 y_a11_proc_0 >= -297
 c395: u_a8 - u_a11 - 244 y_a11_proc_1 >= -297
 c396: u_a12 - u_a8 - 1000 y_a8_proc_0 >= 0
 c397: u_a8 - u_a12 - 947 y_a12_proc_0 >= -1
 c398: u_a13 - u_a8 - 1000 y_a8_proc_0 >= 0
 c399: u_a13 - u_a8 - 446 y_a8_proc_1 >= -2544
 c400: u_a8 - u_a13 - 813 y_a13_proc_0 >= -1
 c401: u_a8 - u_a13 - 1153 y_a13_proc_1 >= -2545
 c402: u_a14 - u_a8 - 1213 y_a8_proc_2 >= -2544
 c403: u_a14 - u_a8 - 1000 y_a8_proc_0 >= 0
 c404: u_a14 - u_a8 - 446 y_a8_proc_1 >= -2544
 c405: u_a8 - u_a14 - 1151 y_a14_proc_2 >= -2545
 c406: u_a8 - u_a14 - 617 y_a14_proc_0 >= -1
 c407: u_a8 - u_a14 - 1243 y_a14_proc_1 >= -2545
 c408: u_a10 - u_a9 - 820 y_a9_proc_2 >= -2545
 c409: u_a10 - u_a9 - 953 y_a9_proc_0 >= -2545
 c410: u_a10 - u_a9 - 963 y_a9_proc_1 >= -1
 c411: u_a9 - u_a10 - 1108 y_a10_proc_2 >= -2544
 c412: u_a9 - u_a10 - 1054 y_a10_proc_0 >= -2544
 c413: u_a9 - u_a10 - 967 y_a10_proc_1 >= 0
 c414: u_a11 - u_a9 - 820 y_a9_proc_2 >= -2545
 c415: u_a11 - u_a9 - 953 y_a9_proc_0 >= -2545
 c416: u_a11 - u_a9 - 963 y_a9_proc_1 >= -1
 c417: u_a9 - u_a11 - 1064 y_a11_proc_2 >= -2544
 c418: u_a9 - u_a11 - 1148 y_a11_proc_0 >= -2544
 c419: u_a9 - u_a11 - 244 y_a11_proc_1 >= 0
 c420: u_a12 - u_a9 - 953 y_a9_proc_0 >= -1
 c421: u_a9 - u_a12 - 947 y_a12_proc_0 >= -2544
 c422: u_a13 - u_a9 - 953 y_a9_proc_0 >= -2543
 c423: u_a13 - u_a9 - 963 y_a9_proc_1 >= -2543
 c424: u_a9 - u_a13 - 813 y_a13_proc_0 >= -2
 c425: u_a9 - u_a13 - 1153 y_a13_proc_1 >= -2
 c426: u_a14 - u_a9 - 820 y_a9_proc_2 >= -3645
 c427: u_a14 - u_a9 - 953 y_a9_proc_0 >= -2373
 c428: u_a14 - u_a9 - 963 y_a9_proc_1 >= -2373
 c429: u_a9 - u_a14 - 1151 y_a14_proc_2 >= -1444
 c430: u_a9 - u_a14 - 617 y_a14_proc_0 >= -172
 c431: u_a9 - u_a14 - 1243 y_a14_proc_1 >= -172
 c432: u_a11 - u_a10 - 1108 y_a10_proc_2 >= -2544
 c433: u_a11 - u_a10 - 1054 y_a10_proc_0 >= -2544
 c434: u_a11 - u_a10 - 967 y_a10_proc_1 >= 0
 c435: u_a10 - u_a11 - 1064 y_a11_proc_2 >= -2545
 c436: u_a10 - u_a11 - 1148 y_a11_proc_0 >= -2545
 c437: u_a10 - u_a11 - 244 y_a11_proc_1 >= -1
 c438: u_a12 - u_a10 - 1054 y_a10_proc_0 >= -2544
 c439: u_a10 - u_a12 - 947 y_a12_proc_0 >= -1
 c440: u_a13 - u_a10 - 1054 y_a10_proc_0 >= -258
 c441: u_a13 - u_a10 - 967 y_a10_proc_1 >= -258
 c442: u_a10 - u_a13 - 813 y_a13_proc_0 >= -2287
 c443: u_a10 - u_a13 - 1153 y_a13_proc_1 >= -2287
 c444: u_a14 - u_a10 - 1108 y_a10_proc_2 >= -3816
 c445: u_a14 - u_a10 - 1054 y_a10_proc_0 >= -2544
 c446: u_a14 - u_a10 - 967 y_a10_proc_1 >= -2544
 c447: u_a10 - u_a14 - 1151 y_a14_proc_2 >= -1273
 c448: u_a10 - u_a14 - 617 y_a14_proc_0 >= -1
 c449: u_a10 - u_a14 - 1243 y_a14_proc_1 >= -1
 c450: u_a12 - u_a11 - 1148 y_a11_proc_0 >= -189
 c451: u_a11 - u_a12 - 947 y_a12_proc_0 >= -2356
 c452: u_a13 - u_a11 - 1148 y_a11_proc_0 >= -2544
 c453: u_a13 - u_a11 - 244 y_a11_proc_1 >= -2544
 c454: u_a11 - u_a13 - 813 y_a13_proc_0 >= -1
 c455: u_a11 - u_a13 - 1153 y_a13_proc_1 >= -1
 c456: u_a14 - u_a11 - 1064 y_a11_proc_2 >= -1463
 c457: u_a14 - u_a11 - 1148 y_a11_proc_0 >= -191
 c458: u_a14 - u_a11 - 244 y_a11_proc_1 >= -191
 c459: u_a11 - u_a14 - 1151 y_a14_proc_2 >= -3626
 c460: u_a11 - u_a14 - 617 y_a14_proc_0 >= -2354
 c461: u_a11 - u_a14 - 1243 y_a14_proc_1 >= -2354
 c462: u_a13 - u_a12 - 947 y_a12_proc_0 >= 0
 c463: u_a12 - u_a13 - 813 y_a13_proc_0 >= -1
 c464: u_a14 - u_a12 - 947 y_a12_proc_0 >= 0
 c465: u_a12 - u_a14 - 617 y_a14_proc_0 >= -1
 c466: u_a14 - u_a13 - 813 y_a13_proc_0 >= -1
 c467: u_a14 - u_a13 - 1153 y_a13_proc_1 >= -2545
 c468: u_a13 - u_a14 - 617 y_a14_proc_0 >= 0
 c469: u_a13 - u_a14 - 1243 y_a14_proc_1 >= -2544

Bounds
End
